p edge 1000 4990
1 961
1 104
1 926
1 2
1 738
2 337
2 20
2 951
2 826
2 3
3 131
3 4
3 591
3 697
3 646
4 32
4 501
4 898
4 5
4 661
5 288
5 548
5 106
5 6
5 390
6 888
6 7
6 859
6 521
6 377
7 449
7 930
7 8
7 48
7 570
8 148
8 174
8 469
8 9
8 851
9 49
9 338
9 384
9 65
9 10
10 132
10 776
10 11
10 140
10 635
11 326
11 250
11 839
11 267
11 12
12 351
12 956
12 394
12 3
12 13
13 14
13 559
13 998
13 210
13 740
14 940
14 631
14 15
14 345
14 604
15 16
15 551
15 979
15 194
15 55
16 551
16 17
16 283
16 41
16 631
17 388
17 18
17 367
17 995
17 703
18 272
18 608
18 19
18 802
18 611
19 327
19 260
19 162
19 20
19 620
20 21
20 964
20 892
20 764
20 363
21 294
21 783
21 836
21 321
21 22
22 927
22 389
22 525
22 537
22 23
23 503
23 524
23 689
23 24
23 134
24 25
24 868
24 508
24 922
24 11
25 659
25 95
25 26
25 38
25 939
26 27
26 498
26 636
26 15
26 796
27 668
27 168
27 28
27 676
27 801
28 877
28 309
28 985
28 29
28 592
29 30
29 620
29 175
29 711
29 80
30 623
30 346
30 354
30 782
30 31
31 122
31 32
31 101
31 318
31 259
32 33
32 82
32 533
32 164
32 821
33 605
33 295
33 556
33 34
33 750
34 350
34 313
34 255
34 35
34 459
35 494
35 36
35 930
35 532
35 135
36 842
36 495
36 37
36 466
36 431
37 776
37 38
37 692
37 443
37 221
38 294
38 651
38 39
38 139
38 785
39 441
39 40
39 365
39 912
39 350
40 146
40 172
40 41
40 113
40 734
41 222
41 42
41 578
41 80
41 426
42 15
42 43
42 306
42 898
42 776
43 295
43 348
43 867
43 601
43 44
44 972
44 45
44 460
44 246
44 731
45 414
45 101
45 811
45 438
45 46
46 410
46 73
46 51
46 47
46 591
47 161
47 924
47 103
47 48
47 704
48 802
48 133
48 670
48 85
48 49
49 960
49 899
49 554
49 50
49 984
50 51
50 754
50 606
50 211
50 253
51 76
51 52
51 794
51 1
51 347
52 988
52 543
52 380
52 53
52 667
53 54
53 386
53 805
53 993
53 513
54 121
54 628
54 968
54 55
54 428
55 56
55 494
55 262
55 468
55 618
56 931
56 273
56 613
56 2
56 57
57 855
57 161
57 58
57 775
57 413
58 965
58 542
58 731
58 59
58 952
59 37
59 335
59 431
59 60
59 5
60 61
60 652
60 647
60 303
60 514
61 888
61 973
61 62
61 294
61 109
62 876
62 63
62 972
62 827
62 159
63 885
63 719
63 64
63 71
63 925
64 768
64 868
64 65
64 985
64 40
65 287
65 66
65 633
65 180
65 375
66 163
66 36
66 57
66 83
66 67
67 625
67 349
67 68
67 457
67 645
68 769
68 639
68 69
68 864
68 637
69 559
69 795
69 736
69 710
69 70
70 693
70 988
70 71
70 398
70 75
71 72
71 31
71 119
71 184
71 706
72 983
72 121
72 1000
72 580
72 73
73 473
73 821
73 868
73 92
73 74
74 75
74 1000
74 120
74 217
74 809
75 898
75 956
75 499
75 25
75 76
76 782
76 653
76 77
76 128
76 771
77 213
77 799
77 712
77 78
77 173
78 79
78 5
78 781
78 38
78 321
79 530
79 635
79 170
79 613
79 80
80 337
80 467
80 469
80 208
80 81
81 841
81 895
81 82
81 228
81 968
82 945
82 888
82 189
82 83
82 671
83 985
83 491
83 923
83 84
83 496
84 172
84 182
84 744
84 85
84 95
85 86
85 11
85 797
85 630
85 40
86 87
86 207
86 984
86 964
86 166
87 305
87 88
87 177
87 120
87 61
88 89
88 659
88 74
88 32
88 507
89 772
89 37
89 90
89 52
89 477
90 480
90 91
90 514
90 615
90 729
91 898
91 489
91 92
91 802
91 618
92 628
92 932
92 93
92 605
93 157
93 426
93 94
93 369
93 625
94 95
94 396
94 446
94 514
94 815
95 630
95 513
95 96
95 616
95 636
96 570
96 700
96 512
96 964
96 97
97 475
97 98
97 840
97 582
97 640
98 230
98 295
98 99
98 824
98 288
99 906
99 100
99 688
99 725
99 583
100 101
100 369
100 195
100 40
100 605
101 282
101 487
101 106
101 102
101 593
102 103
102 217
102 879
102 107
102 606
103 579
103 954
103 104
103 682
103 147
104 593
104 105
104 584
104 534
104 810
105 23
105 752
105 106
105 999
105 717
106 416
106 335
106 107
106 691
106 541
107 601
107 830
107 974
107 108
107 436
108 730
108 617
108 42
108 109
108 562
109 910
109 720
109 110
109 523
109 536
110 111
110 682
110 116
110 209
110 812
111 432
111 948
111 899
111 112
111 177
112 354
112 113
112 183
112 325
112 902
113 323
113 823
113 114
113 328
113 925
114 115
114 970
114 421
114 90
114 113
115 871
115 565
115 977
115 116
115 396
116 915
116 117
116 65
116 651
116 791
117 879
117 568
117 694
117 118
117 51
118 942
118 119
118 101
118 182
118 155
119 525
119 446
119 120
119 87
119 111
120 118
120 402
120 121
120 322
120 26
121 703
121 148
121 48
121 122
121 547
122 123
122 429
122 298
122 261
122 930
123 471
123 135
123 124
123 611
123 973
124 125
124 948
124 914
124 917
124 619
125 126
125 844
125 346
125 363
125 659
126 660
126 938
126 49
126 127
126 262
127 248
127 128
127 689
127 121
127 335
128 970
128 371
128 745
128 129
128 422
129 130
129 646
129 143
129 486
129 725
130 272
130 131
130 304
130 330
130 875
131 585
131 132
131 905
131 465
131 122
132 905
132 133
132 995
132 797
132 815
133 165
133 209
133 961
133 134
133 477
134 848
134 135
134 416
134 583
134 810
135 895
135 860
135 143
135 250
135 136
136 137
136 719
136 43
136 417
136 995
137 871
137 138
137 740
137 582
137 31
138 20
138 52
138 139
138 109
138 38
139 808
139 213
139 904
139 140
139 410
140 541
140 210
140 9
140 488
140 141
141 666
141 351
141 870
141 109
141 142
142 143
142 559
142 649
142 54
142 148
143 716
143 144
143 96
143 879
143 29
144 827
144 143
144 145
144 987
144 20
145 58
145 494
145 766
145 481
145 146
146 147
146 745
146 583
146 848
146 286
147 143
147 932
147 204
147 148
147 591
148 963
148 149
148 674
148 774
148 912
149 553
149 887
149 109
149 150
149 993
150 151
150 307
150 444
150 32
150 394
151 984
151 720
151 779
151 152
151 266
152 417
152 362
152 886
152 153
152 518
153 381
153 154
153 590
153 299
153 482
154 797
154 174
154 452
154 61
154 155
155 982
155 156
155 617
155 450
155 314
156 157
156 424
156 550
156 90
156 786
157 441
157 612
157 158
157 385
157 84
158 198
158 159
158 317
158 886
158 962
159 979
159 598
159 160
159 666
159 239
160 727
160 361
160 43
160 161
160 790
161 389
161 234
161 162
161 469
161 928
162 607
162 885
162 399
162 163
162 552
163 117
163 164
163 961
163 454
163 292
164 143
164 934
164 165
164 683
164 145
165 166
165 552
165 699
165 779
165 806
166 830
166 802
166 292
166 327
166 167
167 997
167 697
167 200
167 168
167 246
168 716
168 621
168 169
168 302
168 88
169 485
169 170
169 319
169 25
169 194
170 420
170 285
170 114
170 732
170 171
171 294
171 875
171 844
171 172
171 668
172 631
172 173
172 555
172 885
172 349
173 174
173 360
173 345
173 48
173 275
174 175
174 335
174 410
174 120
174 272
175 734
175 176
175 840
175 57
175 679
176 572
176 855
176 367
176 803
176 177
177 971
177 893
177 791
177 178
177 228
178 600
178 411
178 179
178 823
178 620
179 608
179 930
179 249
179 180
179 91
180 181
180 128
180 986
180 608
180 501
181 356
181 240
181 667
181 182
181 128
182 606
182 183
182 340
182 525
182 800
183 184
183 872
183 632
183 73
183 659
184 559
184 81
184 990
184 185
184 640
185 99
185 179
185 186
185 848
185 556
186 678
186 187
186 498
186 23
186 102
187 589
187 909
187 664
187 188
187 884
188 898
188 5
188 566
188 189
188 380
189 878
189 376
189 47
189 795
189 190
190 701
190 82
190 191
190 202
190 281
191 586
191 192
191 369
191 339
191 587
192 158
192 50
192 193
192 390
192 646
193 889
193 271
193 251
193 194
193 732
194 513
194 476
194 623
194 251
194 195
195 33
195 919
195 419
195 196
195 506
196 335
196 169
196 197
196 244
196 63
197 242
197 751
197 456
197 198
197 299
198 147
198 855
198 65
198 199
198 429
199 838
199 544
199 420
199 200
199 174
200 201
200 247
200 959
200 720
200 291
201 283
201 202
201 330
201 168
201 252
202 273
202 1
202 523
202 887
202 203
203 927
203 747
203 808
203 998
203 204
204 774
204 393
204 49
204 942
204 205
205 223
205 206
205 988
205 211
205 830
206 784
206 207
206 451
206 240
206 219
207 966
207 193
207 753
207 225
207 208
208 209
208 616
208 377
208 638
208 854
209 210
209 264
209 566
209 925
209 177
210 150
210 553
210 211
210 496
210 447
211 576
211 303
211 399
211 212
211 559
212 352
212 992
212 310
212 164
212 213
213 841
213 249
213 197
213 214
213 561
214 813
214 250
214 215
214 561
214 174
215 216
215 589
215 927
215 896
215 591
216 901
216 66
216 437
216 217
216 800
217 963
217 938
217 218
217 710
217 766
218 168
218 521
218 754
218 219
218 462
219 942
219 286
219 501
219 170
219 220
220 803
220 971
220 221
220 633
220 514
221 765
221 258
221 695
221 677
221 222
222 636
222 181
222 47
222 223
222 2
223 224
223 985
223 625
223 191
223 160
224 225
224 554
224 150
224 991
224 731
225 163
225 610
225 66
225 226
225 330
226 227
226 770
226 587
226 966
226 356
227 228
227 829
227 666
227 569
227 764
228 322
228 565
228 965
228 784
228 229
229 948
229 765
229 260
229 230
229 801
230 591
230 231
230 999
230 924
230 459
231 232
231 92
231 814
231 936
231 944
232 63
232 503
232 156
232 233
232 378
233 616
233 234
233 999
233 725
233 666
234 118
234 761
234 147
234 235
234 559
235 25
235 754
235 236
235 914
235 453
236 812
236 151
236 295
236 696
236 237
237 111
237 238
237 619
237 292
237 667
238 520
238 358
238 239
238 672
238 995
239 240
239 564
239 91
239 389
240 5
240 820
240 241
240 212
240 676
241 581
241 142
241 610
241 673
241 242
242 793
242 599
242 278
242 243
242 942
243 691
243 122
243 750
243 244
243 40
244 241
244 833
244 915
244 687
244 245
245 372
245 246
245 410
245 288
245 523
246 48
246 247
246 339
246 536
246 400
247 206
247 158
247 278
247 475
247 248
248 360
248 249
248 80
248 152
248 686
249 20
249 494
249 758
249 21
249 250
250 466
250 763
250 956
250 860
250 251
251 406
251 984
251 27
251 638
251 252
252 565
252 958
252 305
252 253
252 748
253 504
253 283
253 254
253 616
253 454
254 402
254 148
254 974
254 660
254 255
255 674
255 732
255 976
255 126
255 256
256 833
256 576
256 257
256 775
256 735
257 130
257 258
257 480
257 845
257 199
258 687
258 551
258 259
258 23
258 939
259 82
259 475
259 260
259 265
259 847
260 502
260 940
260 859
260 258
260 261
261 61
261 196
261 367
261 90
261 262
262 263
262 968
262 759
262 132
262 602
263 463
263 117
263 704
263 264
263 859
264 577
264 216
264 958
264 404
264 265
265 953
265 610
265 266
265 214
265 840
266 125
266 267
266 776
266 58
266 460
267 32
267 308
267 646
267 268
267 312
268 886
268 269
268 897
268 691
268 56
269 207
269 270
269 186
269 312
269 461
270 800
270 271
270 701
270 295
270 203
271 540
271 906
271 272
271 902
271 190
272 231
272 669
272 852
272 273
272 50
273 274
273 275
273 277
273 714
273 610
274 275
274 2
274 757
274 408
274 674
275 276
275 896
275 315
275 309
275 764
276 691
276 900
276 61
276 333
276 277
277 790
277 838
277 278
277 511
277 99
278 279
278 886
278 542
278 573
278 177
279 280
279 693
279 171
279 489
279 63
280 538
280 513
280 281
280 835
280 922
281 72
281 63
281 282
281 372
281 770
282 857
282 778
282 283
282 791
282 622
283 284
283 335
283 333
283 646
283 706
284 285
284 347
284 173
284 193
284 483
285 808
285 649
285 286
285 495
285 676
286 734
286 277
286 287
286 560
286 835
287 955
287 288
287 657
287 366
287 617
288 289
288 462
288 547
288 207
288 74
289 866
289 512
289 764
289 290
289 750
290 291
290 690
290 617
290 667
290 332
291 165
291 292
291 494
291 830
291 164
292 833
292 293
292 129
292 38
292 66
293 138
293 929
293 248
293 772
293 294
294 295
294 632
294 630
294 222
294 189
295 836
295 296
295 978
295 701
295 775
296 613
296 254
296 297
296 801
296 66
297 298
297 733
297 904
297 162
297 670
298 745
298 906
298 299
298 473
298 279
299 161
299 300
299 482
299 790
299 568
300 941
300 301
300 397
300 407
300 605
301 302
301 981
301 305
301 483
301 511
302 264
302 267
302 633
302 999
302 303
303 355
303 216
303 635
303 565
303 304
304 139
304 930
304 182
304 156
304 305
305 802
305 455
305 129
305 306
305 189
306 833
306 301
306 307
306 358
306 212
307 440
307 308
307 827
307 76
307 878
308 823
308 309
308 881
308 447
308 376
309 760
309 310
309 510
309 165
309 359
310 924
310 311
310 936
310 441
310 447
311 893
311 522
311 312
311 920
311 571
312 212
312 479
312 787
312 313
312 489
313 314
313 199
313 193
313 796
313 666
314 340
314 22
314 319
314 315
314 158
315 316
315 940
315 210
315 204
315 182
316 476
316 539
316 87
316 950
316 317
317 254
317 311
317 318
317 720
317 527
318 319
318 390
318 399
318 308
318 629
319 351
319 966
319 119
319 320
319 672
320 479
320 321
320 805
320 431
320 555
321 488
321 322
321 588
321 907
321 410
322 344
322 323
322 260
322 423
322 616
323 690
323 324
323 336
323 916
323 306
324 325
324 428
324 874
324 798
324 222
325 707
325 326
325 62
325 461
325 883
326 934
326 123
326 782
326 327
326 649
327 482
327 873
327 328
327 199
327 926
328 223
328 513
328 57
328 329
328 961
329 423
329 415
329 330
329 985
329 379
330 620
330 980
330 70
330 196
330 331
331 332
331 526
331 885
331 845
331 486
332 128
332 297
332 234
332 892
332 333
333 508
333 984
333 515
333 334
333 39
334 315
334 600
334 435
334 762
334 335
335 802
335 247
335 336
335 915
336 831
336 144
336 879
336 337
336 968
337 338
337 366
337 592
337 334
337 463
338 579
338 943
338 191
338 341
338 339
339 866
339 217
339 340
339 331
339 809
340 448
340 879
340 341
340 60
340 807
341 342
341 750
341 234
341 295
341 938
342 118
342 932
342 619
342 343
342 728
343 416
343 344
343 533
343 474
343 814
344 934
344 27
344 845
344 418
344 345
345 379
345 346
345 181
345 397
345 732
346 861
346 454
346 347
346 611
346 786
347 348
347 767
347 983
347 786
347 763
348 349
348 347
348 769
348 596
348 198
349 494
349 350
349 861
349 907
349 919
350 351
350 274
350 105
350 430
350 51
351 237
351 352
351 983
351 66
351 626
352 771
352 606
352 353
352 482
352 421
353 196
353 998
353 973
353 354
353 724
354 180
354 107
354 355
354 149
354 640
355 356
355 915
355 929
355 706
355 866
356 213
356 357
356 50
356 569
356 446
357 257
357 358
357 952
357 296
357 953
358 345
358 235
358 810
358 359
358 33
359 735
359 440
359 770
359 360
359 225
360 425
360 992
360 449
360 361
360 505
361 853
361 874
361 899
361 714
361 362
362 458
362 209
362 673
362 527
362 363
363 324
363 436
363 37
363 27
363 364
364 803
364 298
364 723
364 365
364 458
365 736
365 276
365 366
365 328
365 938
366 885
366 180
366 20
366 367
366 655
367 569
367 164
367 368
367 384
367 981
368 7
368 174
368 573
368 369
368 78
369 370
369 155
369 522
369 785
369 454
370 251
370 837
370 527
370 371
370 965
371 362
371 609
371 704
371 372
371 767
372 362
372 92
372 158
372 373
372 396
373 577
373 374
373 378
373 494
373 774
374 375
374 192
374 338
374 422
374 950
375 987
375 557
375 376
375 168
375 605
376 377
376 657
376 763
376 264
376 68
377 784
377 9
377 688
377 378
377 304
378 878
378 95
378 59
378 257
378 379
379 833
379 173
379 340
379 816
379 380
380 409
380 94
380 381
380 693
380 732
381 975
381 292
381 423
381 382
382 383
382 516
382 510
382 453
382 362
383 987
383 384
383 476
383 461
383 448
384 21
384 385
384 509
384 400
384 376
385 386
385 553
385 618
385 367
385 980
386 251
386 675
386 387
386 652
386 469
387 388
387 9
387 124
387 137
387 466
388 885
388 788
388 516
388 389
388 797
389 390
389 559
389 599
389 612
389 920
390 371
390 863
390 664
390 391
390 59
391 392
391 538
391 581
391 248
391 141
392 932
392 450
392 137
392 99
392 393
393 48
393 601
393 437
393 402
393 394
394 525
394 415
394 395
394 564
394 147
395 219
395 135
395 105
395 396
395 747
396 397
396 168
396 435
396 335
396 640
397 537
397 546
397 398
397 396
397 975
398 808
398 698
398 817
398 399
398 827
399 313
399 108
399 668
399 838
399 400
400 341
400 985
400 401
400 444
400 700
401 436
401 574
401 402
401 639
401 368
402 34
402 11
402 454
402 966
402 403
403 404
403 452
403 25
403 775
403 258
404 262
404 383
404 804
404 511
404 405
405 423
405 702
405 944
405 40
405 406
406 225
406 407
406 665
406 453
406 700
407 585
407 887
407 358
407 231
407 408
408 242
408 373
408 430
408 409
408 131
409 122
409 828
409 286
409 837
409 410
410 411
410 802
410 839
410 872
410 660
411 912
411 135
411 694
411 412
411 661
412 413
412 73
412 286
412 422
412 631
413 424
413 351
413 727
413 594
413 414
414 68
414 415
414 339
414 412
414 524
415 416
415 872
415 45
415 249
415 468
416 417
416 230
416 921
416 756
416 248
417 817
417 800
417 418
417 707
417 614
418 906
418 840
418 419
418 779
418 922
419 540
419 406
419 420
419 827
419 52
420 248
420 946
420 942
420 421
420 373
421 411
421 422
421 286
421 455
421 620
422 595
422 423
422 138
422 55
422 329
423 632
423 424
423 77
423 787
423 551
424 619
424 329
424 425
424 939
424 601
425 967
425 751
425 776
425 426
425 784
426 427
426 891
426 928
426 345
426 118
427 428
427 776
427 112
427 451
427 700
428 834
428 300
428 366
428 202
428 429
429 345
429 430
429 169
429 390
429 464
430 431
430 423
430 999
430 608
430 376
431 103
431 823
431 737
431 950
431 432
432 605
432 431
432 433
432 291
432 533
433 833
433 97
433 434
433 545
433 979
434 540
434 478
434 412
434 435
434 795
435 399
435 436
435 260
435 625
435 256
436 437
436 895
436 791
436 749
436 24
437 277
437 741
437 380
437 438
437 612
438 140
438 439
438 729
438 924
438 935
439 440
439 244
439 721
439 965
439 245
440 441
440 533
440 213
440 825
440 433
441 581
441 135
441 181
441 588
441 442
442 94
442 394
442 109
442 771
442 443
443 232
443 363
443 444
443 694
443 372
444 445
444 244
444 622
444 781
444 293
445 487
445 446
445 440
445 67
445 697
446 706
446 447
446 315
446 94
446 528
447 845
447 334
447 252
447 182
447 448
448 578
448 449
448 344
448 346
448 730
449 319
449 450
449 917
449 986
449 286
450 333
450 381
450 739
450 670
450 451
451 292
451 452
451 406
451 373
451 756
452 184
452 57
452 722
452 215
452 453
453 858
453 161
453 417
453 665
453 454
454 647
454 195
454 610
454 905
454 455
455 456
455 917
455 465
455 29
455 998
456 457
456 445
456 893
456 752
456 62
457 553
457 311
457 149
457 458
457 865
458 109
458 459
458 856
458 565
458 98
459 600
459 873
459 385
459 460
459 926
460 189
460 228
460 372
460 981
460 461
461 301
461 766
461 462
461 6
461 299
462 463
462 141
462 369
462 314
462 792
463 538
463 511
463 626
463 286
463 464
464 465
464 11
464 292
464 134
464 174
465 789
465 312
465 717
465 748
465 466
466 112
466 467
466 515
466 654
466 233
467 468
467 7
467 707
467 292
467 457
468 366
468 469
468 188
468 410
468 987
469 470
469 96
469 246
469 654
469 961
470 926
470 837
470 536
470 676
470 471
471 472
471 211
471 532
471 598
471 231
472 492
472 425
472 473
472 121
472 867
473 571
473 210
473 474
473 543
473 74
474 355
474 332
474 475
474 939
474 683
475 76
475 476
475 73
475 434
475 913
476 391
476 122
476 622
476 574
476 477
477 478
477 640
477 57
477 596
477 998
478 479
478 835
478 418
478 6
478 705
479 480
479 244
479 584
479 223
479 213
480 565
480 605
480 733
480 526
480 481
481 482
481 889
481 728
481 370
481 785
482 628
482 483
482 737
482 487
482 592
483 484
483 720
483 190
483 953
483 669
484 151
484 485
484 149
484 893
484 372
485 486
485 391
485 610
485 624
485 799
486 910
486 946
486 456
486 777
486 487
487 162
487 488
487 230
487 654
487 593
488 117
488 515
488 489
488 42
488 442
489 80
489 823
489 579
489 490
489 882
490 810
490 491
490 99
490 74
490 866
491 966
491 739
491 492
491 914
491 57
492 108
492 593
492 493
492 803
492 777
493 494
493 706
493 58
493 230
493 360
494 297
494 495
494 933
494 68
494 819
495 496
495 352
495 672
495 539
495 609
496 382
496 127
496 666
496 497
496 724
497 923
497 698
497 198
497 498
497 725
498 984
498 50
498 23
498 667
498 499
499 500
499 906
499 514
499 361
499 236
500 501
500 671
500 353
500 506
500 803
501 202
501 149
501 672
501 502
501 736
502 503
502 8
502 447
502 937
502 608
503 758
503 425
503 504
503 85
503 30
504 393
504 796
504 90
504 940
504 505
505 253
505 506
505 788
505 593
505 345
506 622
506 507
506 402
506 124
506 482
507 508
507 442
507 620
507 778
507 684
508 247
508 297
508 750
508 509
508 453
509 193
509 548
509 189
509 281
509 510
510 511
510 353
510 284
510 320
510 915
511 250
511 976
511 841
511 498
511 512
512 634
512 556
512 111
512 513
512 196
513 514
513 26
513 763
513 677
513 303
514 518
514 557
514 217
514 515
514 896
515 516
515 404
515 818
515 78
515 398
516 877
516 590
516 224
516 788
516 517
517 518
517 587
517 278
517 146
517 711
518 958
518 342
518 693
518 485
518 519
519 344
519 144
519 520
519 316
519 601
520 521
520 671
520 944
520 305
520 788
521 366
521 692
521 912
521 789
521 522
522 205
522 610
522 759
522 523
522 829
523 524
523 319
523 260
523 645
523 402
524 926
524 479
524 756
524 525
524 545
525 526
525 568
525 131
525 5
525 783
526 753
526 821
526 644
526 527
526 313
527 528
527 894
527 149
527 624
527 770
528 465
528 529
528 618
528 736
528 226
529 357
529 732
529 183
529 553
529 530
530 446
530 763
530 531
530 593
530 693
531 532
531 739
531 598
531 105
531 930
532 533
532 426
532 919
532 206
532 675
533 118
533 534
533 121
533 528
533 954
534 948
534 538
534 785
534 826
534 535
535 536
535 524
535 891
535 655
535 435
536 987
536 248
536 768
536 48
536 537
537 701
537 538
537 912
537 261
537 17
538 537
538 491
538 812
538 426
538 539
539 53
539 576
539 229
539 805
539 540
540 31
540 541
540 873
540 54
540 967
541 300
541 766
541 542
541 946
541 914
542 352
542 208
542 108
542 249
542 543
543 200
543 893
543 544
543 646
543 896
544 948
544 252
544 545
544 473
544 822
545 457
545 426
545 636
545 546
545 817
546 660
546 652
546 305
546 547
546 817
547 548
547 425
547 773
547 403
547 139
548 942
548 631
548 399
548 549
548 657
549 449
549 928
549 553
549 642
549 550
550 558
550 841
550 551
550 460
550 155
551 813
551 693
551 552
551 839
551 42
552 875
552 77
552 646
552 252
552 553
553 949
553 137
553 642
553 554
553 26
554 140
554 301
554 940
554 555
554 728
555 510
555 189
555 720
555 556
555 713
556 765
556 756
556 557
556 272
556 137
557 72
557 605
557 558
557 948
557 896
558 730
558 963
558 254
558 865
558 559
559 709
559 675
559 560
559 772
559 297
560 259
560 561
560 108
560 406
560 585
561 562
561 5
561 994
561 981
561 692
562 212
562 150
562 726
562 245
562 563
563 457
563 363
563 136
563 564
563 346
564 820
564 586
564 565
564 246
564 150
565 245
565 274
565 566
565 380
565 650
566 416
566 233
566 327
566 567
566 494
567 189
567 279
567 677
567 568
567 776
568 561
568 321
568 535
568 569
568 546
569 570
569 232
569 438
569 755
569 303
570 571
570 42
570 251
570 448
570 682
571 938
571 572
571 119
571 603
571 52
572 661
572 343
572 750
572 356
572 573
573 574
573 821
573 857
573 855
573 683
574 924
574 232
574 575
574 965
574 700
575 576
575 881
575 16
575 692
575 121
576 577
576 784
576 491
576 927
576 23
577 995
577 989
577 20
577 578
577 543
578 572
578 639
578 579
578 128
578 400
579 999
579 43
579 637
579 696
579 580
580 979
580 581
580 842
580 332
580 62
581 532
581 86
581 582
581 927
581 969
582 718
582 671
582 31
582 531
582 583
583 246
583 828
583 584
583 169
583 749
584 845
584 211
584 707
584 24
584 585
585 396
585 11
585 79
585 726
585 586
586 96
586 587
586 448
586 138
586 882
587 662
587 588
587 572
587 606
587 746
588 589
588 967
588 408
588 975
588 427
589 483
589 265
589 316
589 911
589 590
590 730
590 591
590 651
590 576
590 154
591 719
591 280
591 592
591 911
591 467
592 51
592 593
592 389
592 550
592 785
593 401
593 594
593 687
593 489
593 987
594 603
594 321
594 423
594 496
594 595
595 319
595 450
595 841
595 101
595 596
596 216
596 832
596 597
596 426
596 524
597 598
597 922
597 998
597 391
597 179
598 628
598 324
598 215
598 21
598 599
599 755
599 220
599 9
599 583
599 600
600 124
600 439
600 447
600 601
600 918
601 72
601 602
601 671
601 50
601 644
602 453
602 603
602 211
602 74
602 38
603 837
603 666
603 830
603 809
603 604
604 168
604 926
604 577
604 605
604 250
605 589
605 981
605 606
605 636
605 321
606 607
606 754
606 592
606 72
606 911
607 357
607 1000
607 608
607 585
607 940
608 299
608 394
608 609
608 683
608 350
609 402
609 382
609 471
609 610
609 97
610 259
610 425
610 611
610 707
610 451
611 968
611 612
611 86
611 906
611 163
612 44
612 745
612 222
612 613
612 79
613 358
613 393
613 240
613 239
613 614
614 451
614 653
614 847
614 615
614 965
615 17
615 222
615 929
615 357
615 616
616 558
616 799
616 617
616 771
616 677
617 618
617 686
617 831
617 951
617 630
618 355
618 302
618 462
618 619
618 71
619 21
619 811
619 82
619 692
619 620
620 621
620 236
620 951
620 999
620 157
621 791
621 796
621 233
621 622
621 920
622 910
622 702
622 623
622 309
622 482
623 438
623 624
623 627
623 189
623 688
624 625
624 267
624 772
624 568
624 755
625 453
625 626
625 649
625 395
625 384
626 155
626 668
626 627
626 499
626 914
627 746
627 628
627 175
627 893
627 12
628 544
628 83
628 859
628 962
628 629
629 189
629 146
629 593
629 630
629 338
630 782
630 373
630 631
630 277
630 58
631 888
631 115
631 933
631 632
631 396
632 986
632 896
632 633
632 570
632 237
633 421
633 966
633 475
633 150
633 634
634 553
634 471
634 635
634 306
634 433
635 636
635 134
635 24
635 794
635 818
636 372
636 302
636 661
636 97
636 637
637 638
637 781
637 665
637 985
637 903
638 260
638 579
638 198
638 639
638 984
639 640
639 502
639 558
639 545
639 37
640 485
640 888
640 782
640 641
640 2
641 911
641 362
641 251
641 388
641 642
642 348
642 845
642 516
642 282
642 643
643 546
643 690
643 734
643 575
643 644
644 645
644 592
644 248
644 38
644 799
645 486
645 925
645 775
645 646
645 719
646 194
646 676
646 196
646 400
646 647
647 843
647 209
647 339
647 648
647 326
648 649
648 42
648 629
648 668
648 994
649 936
649 644
649 291
649 650
649 289
650 484
650 661
650 501
650 651
650 344
651 550
651 244
651 862
651 652
651 138
652 414
652 751
652 719
652 653
652 771
653 313
653 654
653 440
653 627
653 392
654 177
654 267
654 655
654 700
654 939
655 852
655 861
655 26
655 656
655 210
656 883
656 313
656 657
656 459
656 624
657 475
657 37
657 162
657 756
657 658
658 144
658 434
658 659
658 746
658 843
659 462
659 899
659 939
659 660
659 368
660 275
660 64
660 924
660 457
660 661
661 662
661 742
661 596
661 762
661 304
662 663
662 799
662 556
662 957
662 809
663 664
663 37
663 154
663 630
663 668
664 658
664 541
664 665
664 341
664 218
665 981
665 304
665 369
665 666
665 812
666 667
666 53
666 197
666 227
666 152
667 127
667 451
667 826
667 901
667 668
668 669
668 401
668 690
668 476
668 526
669 670
669 759
669 403
669 476
670 671
670 257
670 962
670 160
670 452
671 70
671 752
671 451
671 408
671 672
672 480
672 108
672 673
672 344
672 692
673 331
673 842
673 674
673 639
673 722
674 878
674 625
674 515
674 715
674 675
675 315
675 770
675 676
675 36
675 428
676 677
676 62
676 88
676 351
676 251
677 737
677 315
677 531
677 175
677 678
678 581
678 871
678 642
678 679
678 846
679 488
679 568
679 680
679 155
679 989
680 184
680 640
680 681
680 239
680 18
681 359
681 930
681 682
681 147
681 243
682 43
682 590
682 179
682 683
682 563
683 136
683 337
683 684
683 868
683 291
684 568
684 576
684 685
684 627
684 901
685 804
685 686
685 791
685 7
685 609
686 730
686 403
686 687
686 383
686 680
687 949
687 110
687 752
687 787
687 688
688 689
688 618
688 522
688 329
688 980
689 321
689 690
689 640
689 129
689 355
690 573
690 864
690 592
690 518
690 691
691 228
691 476
691 692
691 303
691 760
692 693
692 121
692 571
692 942
692 264
693 847
693 568
693 694
693 281
693 882
694 695
694 191
694 706
694 736
694 175
695 664
695 846
695 837
695 696
695 115
696 697
696 514
696 116
696 234
696 93
697 933
697 869
697 707
697 349
697 698
698 370
698 561
698 699
698 253
698 565
699 700
699 60
699 693
699 6
699 588
700 293
700 701
700 858
700 547
700 266
701 54
701 235
701 599
701 702
701 822
702 952
702 703
702 145
702 756
702 805
703 540
703 63
703 372
703 704
703 650
704 705
704 676
704 524
704 502
704 441
705 301
705 349
705 706
705 330
705 259
706 423
706 331
706 259
706 881
706 707
707 467
707 883
707 288
707 797
707 708
708 709
708 469
708 820
708 707
708 320
709 804
709 839
709 710
709 11
709 945
710 794
710 711
710 945
710 767
710 255
711 215
711 339
711 858
711 712
711 26
712 602
712 473
712 318
712 828
712 713
713 630
713 824
713 930
713 871
713 714
714 715
714 743
714 895
714 968
714 919
715 716
715 973
715 949
715 499
715 934
716 489
716 717
716 698
716 692
716 128
717 718
717 157
717 496
717 475
717 601
718 719
718 68
718 184
718 640
718 244
719 630
719 26
719 320
719 384
719 720
720 914
720 309
720 721
720 808
720 101
721 288
721 722
721 557
721 245
721 266
722 863
722 129
722 462
722 135
722 723
723 639
723 724
723 125
723 37
723 898
724 725
724 871
724 851
724 234
724 995
725 770
725 997
725 422
725 307
725 726
726 21
726 681
726 727
726 104
726 645
727 424
727 315
727 728
727 859
727 876
728 443
728 409
728 430
728 729
728 490
729 730
729 10
729 686
729 471
729 869
730 909
730 731
730 5
730 552
730 776
731 692
731 719
731 109
731 685
731 732
732 733
732 661
732 528
732 364
732 924
733 734
733 363
733 747
733 846
733 900
734 735
734 858
734 488
734 842
734 630
735 77
735 530
735 736
735 443
735 937
736 285
736 832
736 737
736 168
736 911
737 738
737 137
737 755
737 134
737 226
738 554
738 739
738 764
738 78
738 96
739 819
739 652
739 796
739 612
739 740
740 741
740 443
740 253
740 735
740 435
741 876
741 739
741 742
741 898
741 988
742 449
742 173
742 137
742 824
742 743
743 744
743 131
743 230
743 556
743 897
744 839
744 745
744 981
744 421
744 841
745 931
745 596
745 573
745 746
745 95
746 935
746 290
746 747
746 288
746 166
747 562
747 759
747 464
747 748
747 866
748 231
748 593
748 963
748 822
748 749
749 750
749 965
749 246
749 543
749 632
750 740
750 530
750 99
750 241
750 751
751 813
751 752
751 495
751 537
751 84
752 29
752 529
752 264
752 753
752 523
753 375
753 216
753 182
753 869
753 754
754 356
754 755
754 704
754 167
754 217
755 441
755 170
755 762
755 756
755 704
756 857
756 903
756 757
756 806
756 818
757 758
757 227
757 218
757 934
757 743
758 363
758 355
758 759
758 439
758 465
759 994
759 706
759 229
759 760
759 536
760 73
760 953
760 537
760 628
760 761
761 762
761 646
761 50
761 132
761 245
762 222
762 763
762 228
762 440
762 23
763 229
763 393
763 540
763 223
763 764
764 155
764 765
764 776
764 906
764 807
765 422
765 565
765 766
765 385
765 415
766 577
766 520
766 767
766 619
766 931
767 289
767 768
767 344
767 301
767 169
768 769
768 915
768 279
768 639
768 282
769 842
769 438
769 447
769 299
769 770
770 257
770 130
770 622
770 771
770 269
771 822
771 769
771 772
771 778
771 447
772 357
772 550
772 146
772 773
772 89
773 257
773 11
773 774
773 150
773 143
774 426
774 584
774 747
774 775
774 103
775 706
775 442
775 981
775 581
775 776
776 179
776 187
776 490
776 777
776 59
777 241
777 143
777 387
777 999
777 778
778 642
778 792
778 779
778 515
778 829
779 780
779 299
779 103
779 681
779 338
780 92
780 630
780 263
780 355
780 781
781 161
781 827
781 782
781 635
781 218
782 783
782 207
782 715
782 375
782 937
783 784
783 212
783 650
783 813
783 415
784 476
784 7
784 767
784 12
784 785
785 320
785 592
785 27
785 940
785 786
786 130
786 910
786 787
786 651
786 703
787 788
787 45
787 398
787 829
787 270
788 955
788 954
788 746
788 789
788 991
789 454
789 790
789 393
789 886
789 276
790 640
790 791
790 180
790 977
790 991
791 314
791 838
791 336
791 792
791 10
792 823
792 153
792 793
792 537
792 496
793 328
793 794
793 726
793 990
793 409
794 977
794 795
794 653
794 705
794 139
795 896
795 796
795 258
795 802
795 844
796 481
796 225
796 879
796 797
796 871
797 516
797 579
797 71
797 798
797 533
798 569
798 116
798 717
798 799
798 275
799 343
799 318
799 800
799 77
799 207
800 363
800 663
800 839
800 932
800 801
801 802
801 234
801 694
801 179
801 390
802 803
802 707
802 253
802 575
802 510
803 357
803 804
803 252
803 452
804 256
804 517
804 979
804 493
804 805
805 806
805 905
805 610
805 20
805 822
806 938
806 898
806 601
806 807
806 309
807 699
807 578
807 808
807 253
807 907
808 909
808 74
808 849
808 997
808 809
809 493
809 810
809 11
809 164
809 96
810 693
810 804
810 811
810 828
810 769
811 724
811 586
811 687
811 812
811 304
812 841
812 460
812 509
812 406
812 813
813 897
813 814
813 32
813 560
813 261
814 118
814 840
814 362
814 176
814 815
815 816
815 747
815 644
815 756
815 718
816 727
816 904
816 258
816 335
816 817
817 255
817 759
817 276
817 901
817 818
818 819
818 467
818 439
818 986
819 443
819 846
819 820
819 525
819 131
820 717
820 23
820 470
820 377
820 821
821 822
821 493
821 161
821 248
821 414
822 301
822 328
822 823
822 865
822 654
823 824
823 537
823 448
823 521
823 732
824 717
824 701
824 314
824 825
824 166
825 328
825 936
825 464
825 226
825 826
826 756
826 696
826 827
826 347
826 168
827 619
827 132
827 391
827 828
827 158
828 777
828 595
828 605
828 132
828 829
829 496
829 527
829 559
829 523
829 830
830 827
830 896
830 750
830 705
830 831
831 962
831 832
831 778
831 332
831 198
832 142
832 208
832 833
832 781
832 820
833 241
833 352
833 834
833 158
833 98
834 892
834 827
834 835
834 786
834 23
835 836
835 673
835 103
835 664
835 221
836 837
836 46
836 284
836 975
836 343
837 976
837 971
837 937
837 813
837 838
838 741
838 458
838 839
838 309
838 898
839 135
839 204
839 661
839 128
839 840
840 475
840 786
840 841
840 469
840 3
841 651
841 405
841 842
841 419
841 836
842 503
842 843
842 839
842 264
842 211
843 221
843 261
843 710
843 700
843 844
844 527
844 28
844 294
844 845
844 290
845 752
845 846
845 703
845 91
845 502
846 562
846 188
846 990
846 737
846 847
847 379
847 467
847 486
847 500
847 848
848 871
848 786
848 948
848 849
848 845
849 796
849 703
849 850
849 69
849 81
850 519
850 989
850 664
850 608
850 851
851 852
851 943
851 484
851 66
851 618
852 913
852 853
852 215
852 953
852 30
853 854
853 277
853 440
853 410
853 447
854 996
854 950
854 855
854 94
854 112
855 535
855 569
855 325
855 130
855 856
856 794
856 118
856 985
856 505
856 857
857 758
857 66
857 556
857 97
857 858
858 98
858 999
858 152
858 174
858 859
859 821
859 822
859 792
859 758
859 860
860 787
860 866
860 970
860 760
860 861
861 26
861 264
861 862
861 729
861 347
862 185
862 585
862 863
862 339
862 630
863 441
863 864
863 855
863 463
863 514
864 327
864 220
864 865
864 167
864 30
865 866
865 979
865 156
865 777
865 172
866 445
866 53
866 867
866 988
866 482
867 42
867 258
867 444
867 868
867 172
868 962
868 343
868 97
868 688
868 869
869 988
869 870
869 738
869 279
869 71
870 92
870 871
870 123
870 670
870 952
871 161
871 444
871 238
871 872
871 792
872 622
872 425
872 465
872 873
872 985
873 951
873 474
873 655
873 404
873 874
874 739
874 649
874 912
874 875
874 549
875 745
875 876
875 315
875 346
876 580
876 138
876 578
876 877
876 559
877 942
877 878
877 65
877 128
877 324
878 59
878 592
878 879
878 372
878 385
879 62
879 880
879 17
879 622
879 103
880 793
880 328
880 351
880 296
880 881
881 882
881 25
881 607
881 155
881 51
882 722
882 781
882 123
882 883
882 743
883 250
883 151
883 884
883 928
883 41
884 102
884 107
884 477
884 885
884 278
885 182
885 502
885 886
885 812
885 442
886 887
886 415
886 556
886 613
886 773
887 649
887 318
887 720
887 563
887 888
888 283
888 625
888 889
888 381
888 793
889 517
889 306
889 690
889 890
889 329
890 848
890 891
890 337
890 368
890 575
891 414
891 605
891 892
891 913
891 11
892 136
892 739
892 562
892 893
892 969
893 894
893 751
893 125
893 271
893 749
894 312
894 705
894 682
894 759
894 895
895 896
895 992
895 439
895 994
895 479
896 783
896 311
896 467
896 897
896 660
897 898
897 474
897 604
897 490
897 859
898 178
898 899
898 275
898 56
898 843
899 900
899 30
899 878
899 983
899 214
900 901
900 616
900 77
900 320
900 946
901 40
901 941
901 833
901 902
901 944
902 90
902 903
902 174
902 826
902 653
903 96
903 260
903 904
903 912
903 525
904 449
904 905
904 312
904 402
904 974
905 983
905 578
905 716
905 287
905 906
906 511
906 530
906 907
906 566
906 382
907 861
907 175
907 815
907 908
907 473
908 969
908 909
908 558
908 587
908 409
909 727
909 655
909 427
909 438
909 910
910 733
910 635
910 911
910 912
910 316
911 912
911 1000
911 756
911 828
911 224
912 460
912 720
912 141
912 913
912 598
913 695
913 603
913 941
913 306
913 914
914 526
914 922
914 915
914 831
914 308
915 916
915 784
915 341
915 180
915 848
916 917
916 72
916 499
916 98
916 845
917 930
917 685
917 918
917 26
918 919
918 433
918 641
918 607
918 4
919 782
919 686
919 920
919 688
919 582
920 382
920 921
920 633
920 274
921 861
921 953
921 473
921 922
921 271
922 791
922 527
922 923
922 910
922 691
923 924
923 946
923 409
923 830
923 571
924 819
924 711
924 925
924 805
924 807
925 431
925 814
925 808
925 799
925 926
926 599
926 844
926 116
926 888
926 927
927 84
927 842
927 928
927 985
927 136
928 568
928 51
928 929
928 73
928 133
929 712
929 930
929 193
929 443
929 589
930 412
930 429
930 333
930 617
930 931
931 840
931 209
931 592
931 932
931 251
932 204
932 6
932 933
932 105
932 667
933 963
933 486
933 407
933 411
933 934
934 783
934 935
934 326
934 591
934 718
935 203
935 827
935 307
935 936
935 219
936 211
936 973
936 715
936 937
936 666
937 938
937 189
937 72
937 83
937 262
938 639
938 939
938 949
938 167
938 805
939 426
939 60
939 940
939 665
939 212
940 505
940 941
940 750
940 231
940 475
941 865
941 744
941 528
941 942
941 256
942 59
942 943
942 909
942 550
942 724
943 466
943 730
943 944
943 590
943 292
944 37
944 945
944 957
944 499
944 343
945 322
945 877
945 892
945 946
945 335
946 527
946 947
946 119
946 877
946 525
947 986
947 948
947 786
947 19
947 933
948 81
948 161
948 283
948 150
948 949
949 257
949 973
949 538
949 534
949 950
950 588
950 951
950 499
950 458
950 775
951 498
951 99
951 301
951 763
951 952
952 815
952 529
952 953
952 299
952 380
953 664
953 954
953 175
953 286
953 18
954 569
954 294
954 955
954 936
954 960
955 956
955 205
955 383
955 703
955 692
956 47
956 676
956 881
956 957
956 396
957 958
957 510
957 197
957 872
957 32
958 876
958 7
958 175
958 775
958 959
959 312
959 322
959 960
959 828
959 487
960 504
960 217
960 263
960 51
960 961
961 962
961 219
961 788
961 600
961 32
962 788
962 412
962 963
962 404
962 628
963 462
963 333
963 964
963 165
963 855
964 184
964 398
964 965
964 408
964 282
965 607
965 175
965 552
965 966
965 994
966 967
966 103
966 746
966 877
966 34
967 913
967 22
967 193
967 968
967 982
968 465
968 790
968 777
968 969
968 9
969 150
969 162
969 970
969 898
969 78
970 971
970 166
970 251
970 697
970 3
971 972
971 464
971 48
971 149
971 934
972 619
972 973
972 659
972 736
972 288
973 972
973 974
973 996
973 700
973 514
974 461
974 24
974 975
974 89
974 496
975 871
975 674
975 58
975 976
975 762
976 977
976 185
976 299
976 145
976 453
977 369
977 578
977 240
977 973
977 978
978 891
978 208
978 979
978 329
978 402
979 528
979 980
979 72
979 260
979 425
980 904
980 541
980 897
980 981
980 491
981 71
981 982
981 867
981 801
981 257
982 997
982 56
982 512
982 645
982 983
983 984
983 271
983 778
983 248
983 633
984 383
984 913
984 985
984 454
984 581
985 34
985 986
985 226
985 636
985 532
986 950
986 356
986 197
986 987
986 365
987 988
987 26
987 818
987 96
987 739
988 128
988 916
988 200
988 989
988 345
989 181
989 156
989 990
989 948
989 652
990 340
990 298
990 991
990 731
990 893
991 118
991 757
991 115
991 993
991 992
992 993
992 990
992 166
992 562
992 573
993 569
993 514
993 714
993 994
993 141
994 995
994 32
994 599
994 690
994 134
995 996
995 965
995 488
995 801
995 154
996 205
996 997
996 722
996 287
996 12
997 814
997 134
997 874
997 998
997 511
998 43
998 556
998 312
998 877
998 999
999 283
999 758
999 397
999 1000
999 524
1000 383
1000 205
1000 694
1000 381
1000 1
